3 6 1 3 0 5 1 4 8 -1 
1 10 9 -1 4 1 8 0 9 -1 
-1 6 4 8 3 4 3 8 1 -1 
8 -1 8 8 6 7 8 8 2 -1 
4 3 1 1 6 10 1 7 -1 -1 
5 4 0 8 6 1 5 -1 -1 -1 
1 6 6 3 7 4 4 1 8 -1 
6 4 -1 1 2 -1 8 0 -1 -1 
10 9 5 1 5 8 6 1 9 -1 
9 0 10 6 -1 4 0 0 6 -1 
